Solver command line: []

Read LP format model from file C:\Users\wlhlm\AppData\Local\Temp\tmpn66k2pd8.pyomo.lp
Reading time = 38.46 seconds
objective: 1002984 rows, 875999 columns, 78931926 nonzeros
Set parameter MIPGap to value 0.03
Gurobi Optimizer version 12.0.1 build v12.0.1rc0 (win64 - Windows 11.0 (26100.2))

CPU model: Intel(R) Core(TM) Ultra 7 258V, instruction set [SSE2|AVX|AVX2]
Thread count: 8 physical cores, 8 logical processors, using up to 8 threads

Non-default parameters:
MIPGap  0.03

Optimize a model with 1002984 rows, 875999 columns and 78931926 nonzeros
Model fingerprint: 0x116cb90f
Model has 8759 quadratic constraints
Variable types: 753360 continuous, 122639 integer (105120 binary)
Coefficient statistics:
  Matrix range     [6e-03, 2e+02]
  QMatrix range    [1e+00, 1e+00]
  Objective range  [1e-02, 3e+02]
  Bounds range     [1e+00, 3e+00]
  RHS range        [8e-05, 1e+04]
Presolve removed 140160 rows and 105120 columns (presolve time = 11s)...
Presolve removed 617548 rows and 494907 columns (presolve time = 16s)...
Presolve removed 661278 rows and 529949 columns (presolve time = 20s)...
Presolve removed 696728 rows and 554321 columns (presolve time = 25s)...
Presolve removed 696737 rows and 556824 columns (presolve time = 31s)...
Presolve removed 701799 rows and 559392 columns (presolve time = 37s)...
Presolve removed 701799 rows and 559392 columns (presolve time = 43s)...
Presolve removed 701799 rows and 559392 columns (presolve time = 47s)...
Presolve removed 710558 rows and 559392 columns (presolve time = 56s)...
Presolve removed 710558 rows and 559393 columns (presolve time = 60s)...
Presolve removed 710558 rows and 559393 columns (presolve time = 69s)...
Presolve removed 814848 rows and 663568 columns (presolve time = 70s)...
Presolve removed 806089 rows and 663569 columns
Presolve time: 70.22s
Presolved: 196895 rows, 212430 columns, 620386 nonzeros
Variable types: 149192 continuous, 63238 integer (63238 binary)
Performing another presolve...
Presolve removed 52561 rows and 52562 columns
Presolve time: 4.26s
Deterministic concurrent LP optimizer: primal and dual simplex
Showing primal log only...


Root simplex log...

Iteration    Objective       Primal Inf.    Dual Inf.      Time
       0    5.4844860e+07   1.329189e+07   4.890678e+13     76s
Concurrent spin time: 0.01s

Solved with dual simplex

Root simplex log...

Iteration    Objective       Primal Inf.    Dual Inf.      Time
   55977    4.1100000e+07   0.000000e+00   0.000000e+00     79s

Root relaxation: objective 4.110000e+07, 55977 iterations, 2.90 seconds (5.09 work units)
Total elapsed time = 78.82s (DegenMoves)

    Nodes    |    Current Node    |     Objective Bounds      |     Work
 Expl Unexpl |  Obj  Depth IntInf | Incumbent    BestBd   Gap | It/Node Time

     0     0 4.1100e+07    0  741          - 4.1100e+07      -     -   81s
H    0     0                    5.360854e+07 4.1100e+07  23.3%     -   84s
     0     0 4.1109e+07    0  790 5.3609e+07 4.1109e+07  23.3%     -   85s
     0     0 4.1109e+07    0  788 5.3609e+07 4.1109e+07  23.3%     -   88s
     0     0 4.1109e+07    0  788 5.3609e+07 4.1109e+07  23.3%     -   88s
     0     0 4.1109e+07    0  789 5.3609e+07 4.1109e+07  23.3%     -   88s
     0     0 4.1113e+07    0  684 5.3609e+07 4.1113e+07  23.3%     -   90s
H    0     0                    5.359622e+07 4.1113e+07  23.3%     -   91s
     0     0 4.1113e+07    0  622 5.3596e+07 4.1113e+07  23.3%     -   92s
     0     0 4.1113e+07    0  617 5.3596e+07 4.1113e+07  23.3%     -   92s
     0     0 4.1113e+07    0  616 5.3596e+07 4.1113e+07  23.3%     -   92s
     0     0 4.1113e+07    0  619 5.3596e+07 4.1113e+07  23.3%     -   92s
     0     0 4.1114e+07    0  579 5.3596e+07 4.1114e+07  23.3%     -   95s
     0     0 4.1114e+07    0  555 5.3596e+07 4.1114e+07  23.3%     -   97s
     0     0 4.1114e+07    0  554 5.3596e+07 4.1114e+07  23.3%     -   97s
     0     0 4.1114e+07    0  556 5.3596e+07 4.1114e+07  23.3%     -   97s
     0     0 4.1114e+07    0  554 5.3596e+07 4.1114e+07  23.3%     -   97s
     0     0 4.1115e+07    0  516 5.3596e+07 4.1115e+07  23.3%     -  100s
     0     0 4.1115e+07    0  516 5.3596e+07 4.1115e+07  23.3%     -  101s
     0     0 4.1115e+07    0  513 5.3596e+07 4.1115e+07  23.3%     -  102s
     0     0 4.1115e+07    0  515 5.3596e+07 4.1115e+07  23.3%     -  102s
     0     0 4.1115e+07    0  514 5.3596e+07 4.1115e+07  23.3%     -  103s
     0     0 4.1115e+07    0  510 5.3596e+07 4.1115e+07  23.3%     -  105s
     0     0 4.1115e+07    0  518 5.3596e+07 4.1115e+07  23.3%     -  105s
     0     0 4.1115e+07    0  522 5.3596e+07 4.1115e+07  23.3%     -  106s
H    0     0                    5.318561e+07 4.1115e+07  22.7%     -  108s
H    0     0                    5.318493e+07 4.1115e+07  22.7%     -  108s
H    0     0                    5.318484e+07 4.1115e+07  22.7%     -  108s
H    0     0                    5.318247e+07 4.1115e+07  22.7%     -  108s
H    0     0                    5.318237e+07 4.1115e+07  22.7%     -  108s
H    0     0                    5.318185e+07 4.1115e+07  22.7%     -  108s
H    0     0                    5.318164e+07 4.1115e+07  22.7%     -  109s
H    0     0                    5.318137e+07 4.1115e+07  22.7%     -  109s
     0     0 4.1115e+07    0  530 5.3181e+07 4.1115e+07  22.7%     -  109s
     0     0 4.1115e+07    0  521 5.3181e+07 4.1115e+07  22.7%     -  110s
     0     0 4.1115e+07    0  514 5.3181e+07 4.1115e+07  22.7%     -  112s
     0     0 4.1115e+07    0  513 5.3181e+07 4.1115e+07  22.7%     -  113s
     0     0 4.1115e+07    0  438 5.3181e+07 4.1115e+07  22.7%     -  115s
     0     2 4.1115e+07    0  420 5.3181e+07 4.1115e+07  22.7%     -  118s
    15    24 4.1121e+07    4  447 5.3181e+07 4.1115e+07  22.7%   160  120s
H  101   128                    5.289509e+07 4.1115e+07  22.3%  35.1  127s
H  105   128                    5.279550e+07 4.1115e+07  22.1%  33.8  127s
H  217   226                    5.217893e+07 4.1115e+07  21.2%  19.2  143s
   225   444 4.1121e+07   21  412 5.2179e+07 4.1115e+07  21.2%  18.6  148s
   443   979 4.1121e+07   36  399 5.2179e+07 4.1115e+07  21.2%  12.3  158s
H  530   979                    4.794301e+07 4.1115e+07  14.2%  11.1  158s
   978  1803 4.1121e+07   77  392 4.7943e+07 4.1115e+07  14.2%   8.3  167s
H 1802  2156                    4.794265e+07 4.1115e+07  14.2%   5.4  175s
H 1834  2156                    4.751554e+07 4.1115e+07  13.5%   5.5  175s
H 2010  2156                    4.748167e+07 4.1115e+07  13.4%   5.5  175s
H 2079  2156                    4.740844e+07 4.1115e+07  13.3%   5.5  175s
  2155  2768 4.1122e+07  204  387 4.7408e+07 4.1115e+07  13.3%   5.4  182s
  2767  2776 4.1123e+07  275  375 4.7408e+07 4.1115e+07  13.3%   5.0  193s
  2775  2784 4.1123e+07  276  375 4.7408e+07 4.1115e+07  13.3%   5.0  204s
  2783  2792 4.1123e+07  276  374 4.7408e+07 4.1115e+07  13.3%   5.0  214s
H 2791  2986                    4.738559e+07 4.1115e+07  13.2%   5.0  223s
H 2814  2986                    4.737336e+07 4.1115e+07  13.2%   5.0  223s
H 2850  2986                    4.737250e+07 4.1115e+07  13.2%   5.0  223s
H 2935  2986                    4.737026e+07 4.1115e+07  13.2%   4.9  223s
H 2985  3140                    4.734324e+07 4.1115e+07  13.2%   4.9  230s
H 3006  3140                    4.731799e+07 4.1115e+07  13.1%   4.9  230s
  3139  3838 4.1123e+07  313  375 4.7318e+07 4.1115e+07  13.1%   4.8  237s
  3837  4365 4.1123e+07  366  373 4.7318e+07 4.1115e+07  13.1%   4.4  245s
H 4364  4692                    4.729344e+07 4.1115e+07  13.1%   4.4  258s
H 4424  4692                    4.728838e+07 4.1115e+07  13.1%   4.4  259s
H 4691  4700                    4.726163e+07 4.1115e+07  13.0%   4.4  277s
H 4692  4700                    4.725484e+07 4.1115e+07  13.0%   4.4  277s
H 4694  4700                    4.722867e+07 4.1115e+07  12.9%   4.4  277s
  4699  5374 4.1123e+07  470  345 4.7229e+07 4.1115e+07  12.9%   4.4  284s
  5373  5928 4.1123e+07  526  336 4.7229e+07 4.1115e+07  12.9%   4.3  289s
  5927  6066 4.1123e+07  568  335 4.7229e+07 4.1115e+07  12.9%   4.3  304s
H 6059  6066                    4.716447e+07 4.1115e+07  12.8%   4.4  304s
H 6062  6066                    4.716067e+07 4.1115e+07  12.8%   4.4  304s
  6065  6572 4.1123e+07  613  337 4.7161e+07 4.1115e+07  12.8%   4.4  310s
  6571  7250 4.1124e+07  675  333 4.7161e+07 4.1115e+07  12.8%   4.5  319s
H 7249  7250                    4.703160e+07 4.1115e+07  12.6%   4.3  327s
H 7249  7250                    4.682441e+07 4.1115e+07  12.2%   4.3  331s
H 7249  7250                    4.672170e+07 4.1115e+07  12.0%   4.3  332s
H 7249  7250                    4.659870e+07 4.1115e+07  11.8%   4.3  334s
H 7249  7250                    4.651008e+07 4.1115e+07  11.6%   4.3  335s
H 7249  7250                    4.607830e+07 4.1115e+07  10.8%   4.3  338s
H 7249  7250                    4.546450e+07 4.1115e+07  9.57%   4.3  341s
  7250  7251 4.1124e+07  713 18480 4.5465e+07 4.1115e+07  9.57%   4.3  348s
  7252  7252 4.1120e+07  607  710 4.5465e+07 4.1115e+07  9.57%   4.3  357s
  7253  7253 4.1117e+07   28  602 4.5465e+07 4.1115e+07  9.57%   4.3  360s
  7256  7255 4.1121e+07   51  504 4.5465e+07 4.1115e+07  9.57%   4.3  365s
  7260  7258 4.1119e+07  372  459 4.5465e+07 4.1116e+07  9.57%   4.3  371s
  7263  7260 4.1118e+07  454  478 4.5465e+07 4.1116e+07  9.57%   4.3  375s
  7266  7262 4.1118e+07  368  512 4.5465e+07 4.1116e+07  9.57%   4.3  381s
H 7266  6898                    4.544269e+07 4.1116e+07  9.52%   4.3  383s
H 7266  6553                    4.542369e+07 4.1116e+07  9.48%   4.3  383s
H 7266  6225                    4.542001e+07 4.1116e+07  9.48%   4.3  383s
  7270  6227 4.1118e+07  400  512 4.5420e+07 4.1116e+07  9.48%   4.3  386s
  7275  6231 4.1122e+07  700  507 4.5420e+07 4.1116e+07  9.48%   4.3  390s
H 7276  5919                    4.541986e+07 4.1117e+07  9.47%   4.3  392s
H 7276  5623                    4.541858e+07 4.1117e+07  9.47%   4.3  392s
H 7276  5341                    4.541797e+07 4.1117e+07  9.47%   4.3  392s
  7280  5344 4.1118e+07  151  539 4.5418e+07 4.1117e+07  9.47%   4.3  396s
H 7280  5076                    4.534457e+07 4.1117e+07  9.32%   4.3  399s
  7282  5077 4.1123e+07  447  502 4.5345e+07 4.1117e+07  9.32%   4.3  404s
H 7282  4823                    4.529905e+07 4.1117e+07  9.23%   4.3  407s
H 7282  4581                    4.529901e+07 4.1117e+07  9.23%   4.3  407s
H 7282  4351                    4.529891e+07 4.1117e+07  9.23%   4.3  408s
H 7282  4133                    4.529890e+07 4.1117e+07  9.23%   4.3  408s
H 7282  3926                    4.529890e+07 4.1117e+07  9.23%   4.3  409s
H 7282  3729                    4.529889e+07 4.1117e+07  9.23%   4.3  409s
H 7282  3542                    4.524645e+07 4.1117e+07  9.13%   4.3  409s
H 7282  3364                    4.524645e+07 4.1117e+07  9.13%   4.3  409s
  7283  3365 4.1121e+07  444  512 4.5246e+07 4.1117e+07  9.13%   4.3  410s
H 7287  3199                    4.524203e+07 4.1117e+07  9.12%   4.3  414s
H 7287  3039                    4.523683e+07 4.1117e+07  9.11%   4.3  414s
H 7287  2886                    4.523486e+07 4.1117e+07  9.10%   4.3  414s
H 7287  2741                    4.523453e+07 4.1117e+07  9.10%   4.3  414s
H 7287  2604                    4.523425e+07 4.1117e+07  9.10%   4.3  414s
H 7287  2473                    4.523424e+07 4.1117e+07  9.10%   4.3  414s
H 7287  2349                    4.523385e+07 4.1117e+07  9.10%   4.3  414s
H 7287  2231                    4.523310e+07 4.1117e+07  9.10%   4.3  414s
H 7287  2118                    4.523282e+07 4.1117e+07  9.10%   4.3  414s
  7289  2119 4.1119e+07  368  525 4.5233e+07 4.1117e+07  9.10%   4.3  417s
H 7289  2013                    4.521671e+07 4.1117e+07  9.07%   4.3  419s
  7291  2014 4.1122e+07  196  527 4.5217e+07 4.1117e+07  9.07%   4.3  421s
  7294  2016 4.1118e+07  109  536 4.5217e+07 4.1117e+07  9.07%   4.2  426s
  7296  2018 4.1123e+07  264  434 4.5217e+07 4.1117e+07  9.07%   4.2  433s
  7297  2018 4.1119e+07  139  434 4.5217e+07 4.1117e+07  9.07%   4.2  435s
H 7297  1918                    4.518262e+07 4.1117e+07  9.00%  16.0  437s
  7304  1930 4.1122e+07   16  445 4.5183e+07 4.1117e+07  9.00%  16.1  441s
H 7336  1854                    4.515626e+07 4.1117e+07  8.95%  16.4  444s
H 7338  1763                    4.515529e+07 4.1117e+07  8.94%  16.4  444s
  7344  1777 4.1127e+07   20  422 4.5155e+07 4.1117e+07  8.94%  16.4  445s
H 7376  1702                    4.513365e+07 4.1117e+07  8.90%  16.4  451s
H 7378  1619                    4.513215e+07 4.1117e+07  8.90%  16.4  451s
H 7381  1539                    4.511290e+07 4.1117e+07  8.86%  16.4  451s
  7424  1574 4.1127e+07   25  406 4.5113e+07 4.1117e+07  8.86%  16.4  455s
H 7463  1541                    4.498018e+07 4.1117e+07  8.59%  16.4  458s
  7488  1573 4.1127e+07   29  403 4.4980e+07 4.1117e+07  8.59%  16.3  460s
H 7528  1496                    4.496750e+07 4.1117e+07  8.56%  16.3  472s
H 7529  1429                    4.495928e+07 4.1117e+07  8.55%  16.3  472s
H 7533  1363                    4.494586e+07 4.1117e+07  8.52%  16.3  472s
  7536  1419 4.1127e+07   32  397 4.4946e+07 4.1117e+07  8.52%  16.3  475s
  7660  1537 4.1127e+07   39  373 4.4946e+07 4.1117e+07  8.52%  16.3  483s
  7753  1605 4.1130e+07   45  352 4.4946e+07 4.1117e+07  8.52%  16.4  488s
  7852  1710 4.1127e+07   51  348 4.4946e+07 4.1117e+07  8.52%  16.4  494s
  7990  1864 4.1127e+07   60  337 4.4946e+07 4.1117e+07  8.52%  16.5  517s
  8193  2091 4.1127e+07   72  322 4.4946e+07 4.1117e+07  8.52%  16.5  537s
H 8195  2030                    4.487811e+07 4.1117e+07  8.38%  16.5  537s
H 8247  1955                    4.116600e+07 4.1117e+07  0.12%  16.4  537s
H 8430  1839                    4.116514e+07 4.1117e+07  0.12%  16.3  537s

Cutting planes:
  Gomory: 264
  Cover: 329
  Implied bound: 99
  Projected implied bound: 145
  MIR: 1507
  Mixing: 27
  Flow cover: 814
  Flow path: 8
  RLT: 52
  Relax-and-lift: 234

Explored 8509 nodes (216871 simplex iterations) in 538.40 seconds (437.88 work units)
Thread count was 8 (of 8 available processors)

Solution count 10: 4.11651e+07 4.1166e+07 4.48781e+07 ... 4.51553e+07

Optimal solution found (tolerance 3.00e-02)
Best objective 4.116514049572e+07, best bound 4.111700302322e+07, gap 0.1169%

